p cnf 529 1
529 0
w 1 0.776981
w 2 1 0
w 2 -1 1
w 3 2 0.500071
w 3 -2 0.180387
w 4 3 0
w 4 -3 1
w 5 4 0
w 5 -4 1
w 6 5 0
w 6 -5 1
w 7 6 1
w 7 -6 0
w 8 7 0
w 8 -7 1
w 9 8 1
w 9 -8 0
w 10 9 0
w 10 -9 1
w 11 10 1
w 11 -10 0
w 12 11 0
w 12 -11 1
w 13 12 0
w 13 -12 1
w 14 13 0.429186
w 14 -13 0.0345079
w 15 14 1
w 15 -14 0
w 16 15 0.309437
w 16 -15 0.943154
w 17 16 0.809508
w 17 -16 0.123541
w 18 17 0.330516
w 18 -17 0.592503
w 19 18 0
w 19 -18 1
w 20 19 0
w 20 -19 1
w 21 20 1
w 21 -20 0
w 22 21 0.865081
w 22 -21 0.0678341
w 23 22 0
w 23 -22 1
w 24 1 1
w 24 -1 0
w 25 24 2 1
w 25 24 -2 0
w 25 -24 2 1
w 25 -24 -2 1
w 26 25 3 0.592052
w 26 25 -3 0.746444
w 26 -25 3 0.930005
w 26 -25 -3 0.40354
w 27 26 4 1
w 27 26 -4 1
w 27 -26 4 0
w 27 -26 -4 1
w 28 27 5 1
w 28 27 -5 1
w 28 -27 5 1
w 28 -27 -5 0
w 29 28 6 0.338069
w 29 28 -6 0.575095
w 29 -28 6 0.617539
w 29 -28 -6 0.405903
w 30 29 7 1
w 30 29 -7 0
w 30 -29 7 0
w 30 -29 -7 0
w 31 30 8 0
w 31 30 -8 1
w 31 -30 8 1
w 31 -30 -8 0
w 32 31 9 0
w 32 31 -9 0
w 32 -31 9 1
w 32 -31 -9 1
w 33 32 10 0.870307
w 33 32 -10 0.423809
w 33 -32 10 0.774135
w 33 -32 -10 0.987221
w 34 33 11 0
w 34 33 -11 0
w 34 -33 11 0
w 34 -33 -11 1
w 35 34 12 1
w 35 34 -12 0
w 35 -34 12 1
w 35 -34 -12 0
w 36 35 13 1
w 36 35 -13 1
w 36 -35 13 0
w 36 -35 -13 1
w 37 36 14 1
w 37 36 -14 1
w 37 -36 14 1
w 37 -36 -14 0
w 38 37 15 0.930245
w 38 37 -15 0.611236
w 38 -37 15 0.314832
w 38 -37 -15 0.707679
w 39 38 16 0
w 39 38 -16 0
w 39 -38 16 1
w 39 -38 -16 1
w 40 39 17 0.741167
w 40 39 -17 0.0822077
w 40 -39 17 0.862731
w 40 -39 -17 0.637822
w 41 40 18 1
w 41 40 -18 0
w 41 -40 18 1
w 41 -40 -18 0
w 42 41 19 0
w 42 41 -19 1
w 42 -41 19 1
w 42 -41 -19 0
w 43 42 20 0.728472
w 43 42 -20 0.0152349
w 43 -42 20 0.0294201
w 43 -42 -20 0.754441
w 44 43 21 0.785831
w 44 43 -21 0.684685
w 44 -43 21 0.545954
w 44 -43 -21 0.100663
w 45 44 22 1
w 45 44 -22 1
w 45 -44 22 0
w 45 -44 -22 0
w 46 45 23 0
w 46 45 -23 1
w 46 -45 23 0
w 46 -45 -23 1
w 47 24 0.838385
w 47 -24 0.800443
w 48 47 25 0.490756
w 48 47 -25 0.780374
w 48 -47 25 0.630217
w 48 -47 -25 0.939616
w 49 48 26 1
w 49 48 -26 0
w 49 -48 26 1
w 49 -48 -26 1
w 50 49 27 0
w 50 49 -27 1
w 50 -49 27 0
w 50 -49 -27 0
w 51 50 28 1
w 51 50 -28 1
w 51 -50 28 0
w 51 -50 -28 1
w 52 51 29 0
w 52 51 -29 1
w 52 -51 29 0
w 52 -51 -29 0
w 53 52 30 0
w 53 52 -30 1
w 53 -52 30 0
w 53 -52 -30 1
w 54 53 31 0.440746
w 54 53 -31 0.395581
w 54 -53 31 0.623345
w 54 -53 -31 0.0709632
w 55 54 32 0
w 55 54 -32 0
w 55 -54 32 0
w 55 -54 -32 1
w 56 55 33 1
w 56 55 -33 1
w 56 -55 33 1
w 56 -55 -33 0
w 57 56 34 1
w 57 56 -34 1
w 57 -56 34 1
w 57 -56 -34 0
w 58 57 35 1
w 58 57 -35 1
w 58 -57 35 0
w 58 -57 -35 1
w 59 58 36 0.218815
w 59 58 -36 0.788981
w 59 -58 36 0.317446
w 59 -58 -36 0.12364
w 60 59 37 1
w 60 59 -37 0
w 60 -59 37 1
w 60 -59 -37 0
w 61 60 38 0.936793
w 61 60 -38 0.207108
w 61 -60 38 0.513198
w 61 -60 -38 0.451988
w 62 61 39 1
w 62 61 -39 1
w 62 -61 39 0
w 62 -61 -39 1
w 63 62 40 0.501744
w 63 62 -40 0.872542
w 63 -62 40 0.634451
w 63 -62 -40 0.0466003
w 64 63 41 0.000249816
w 64 63 -41 0.332589
w 64 -63 41 0.0909935
w 64 -63 -41 0.152625
w 65 64 42 0
w 65 64 -42 0
w 65 -64 42 1
w 65 -64 -42 1
w 66 65 43 0
w 66 65 -43 1
w 66 -65 43 0
w 66 -65 -43 0
w 67 66 44 0.692066
w 67 66 -44 0.0644179
w 67 -66 44 0.381917
w 67 -66 -44 0.144054
w 68 67 45 0
w 68 67 -45 1
w 68 -67 45 1
w 68 -67 -45 1
w 69 68 46 0.010524
w 69 68 -46 0.547176
w 69 -68 46 0.466378
w 69 -68 -46 0.0571244
w 70 47 0
w 70 -47 1
w 71 70 48 0
w 71 70 -48 0
w 71 -70 48 1
w 71 -70 -48 0
w 72 71 49 0.336777
w 72 71 -49 0.670791
w 72 -71 49 0.485772
w 72 -71 -49 0.836752
w 73 72 50 1
w 73 72 -50 1
w 73 -72 50 1
w 73 -72 -50 0
w 74 73 51 1
w 74 73 -51 0
w 74 -73 51 1
w 74 -73 -51 0
w 75 74 52 0
w 75 74 -52 1
w 75 -74 52 1
w 75 -74 -52 1
w 76 75 53 0.865229
w 76 75 -53 0.700809
w 76 -75 53 0.882042
w 76 -75 -53 0.222549
w 77 76 54 0
w 77 76 -54 0
w 77 -76 54 0
w 77 -76 -54 1
w 78 77 55 1
w 78 77 -55 0
w 78 -77 55 0
w 78 -77 -55 0
w 79 78 56 0.441429
w 79 78 -56 0.763225
w 79 -78 56 0.506063
w 79 -78 -56 0.997684
w 80 79 57 0
w 80 79 -57 0
w 80 -79 57 0
w 80 -79 -57 1
w 81 80 58 0.526145
w 81 80 -58 0.620803
w 81 -80 58 0.738364
w 81 -80 -58 0.844199
w 82 81 59 0.563282
w 82 81 -59 0.709428
w 82 -81 59 0.556042
w 82 -81 -59 0.445324
w 83 82 60 0.723478
w 83 82 -60 0.717079
w 83 -82 60 0.60284
w 83 -82 -60 0.510167
w 84 83 61 1
w 84 83 -61 0
w 84 -83 61 1
w 84 -83 -61 1
w 85 84 62 1
w 85 84 -62 1
w 85 -84 62 1
w 85 -84 -62 0
w 86 85 63 0.445941
w 86 85 -63 0.745131
w 86 -85 63 0.474487
w 86 -85 -63 0.328667
w 87 86 64 0.398457
w 87 86 -64 0.854812
w 87 -86 64 0.584233
w 87 -86 -64 0.136822
w 88 87 65 1
w 88 87 -65 1
w 88 -87 65 0
w 88 -87 -65 0
w 89 88 66 0
w 89 88 -66 0
w 89 -88 66 1
w 89 -88 -66 1
w 90 89 67 1
w 90 89 -67 0
w 90 -89 67 0
w 90 -89 -67 0
w 91 90 68 1
w 91 90 -68 1
w 91 -90 68 0
w 91 -90 -68 0
w 92 91 69 0
w 92 91 -69 1
w 92 -91 69 1
w 92 -91 -69 0
w 93 70 1
w 93 -70 0
w 94 93 71 1
w 94 93 -71 0
w 94 -93 71 1
w 94 -93 -71 0
w 95 94 72 0.459252
w 95 94 -72 0.118193
w 95 -94 72 0.986629
w 95 -94 -72 0.60468
w 96 95 73 0
w 96 95 -73 1
w 96 -95 73 1
w 96 -95 -73 1
w 97 96 74 0.0196539
w 97 96 -74 0.451468
w 97 -96 74 0.642255
w 97 -96 -74 0.0544599
w 98 97 75 1
w 98 97 -75 0
w 98 -97 75 0
w 98 -97 -75 0
w 99 98 76 1
w 99 98 -76 0
w 99 -98 76 0
w 99 -98 -76 1
w 100 99 77 0
w 100 99 -77 1
w 100 -99 77 1
w 100 -99 -77 1
w 101 100 78 0.722083
w 101 100 -78 0.705824
w 101 -100 78 0.366372
w 101 -100 -78 0.180692
w 102 101 79 0
w 102 101 -79 1
w 102 -101 79 1
w 102 -101 -79 1
w 103 102 80 1
w 103 102 -80 0
w 103 -102 80 1
w 103 -102 -80 1
w 104 103 81 1
w 104 103 -81 0
w 104 -103 81 1
w 104 -103 -81 0
w 105 104 82 0.623237
w 105 104 -82 0.222441
w 105 -104 82 0.827586
w 105 -104 -82 0.799655
w 106 105 83 0.72172
w 106 105 -83 0.527729
w 106 -105 83 0.0681717
w 106 -105 -83 0.32561
w 107 106 84 0
w 107 106 -84 0
w 107 -106 84 1
w 107 -106 -84 1
w 108 107 85 1
w 108 107 -85 0
w 108 -107 85 1
w 108 -107 -85 0
w 109 108 86 1
w 109 108 -86 1
w 109 -108 86 1
w 109 -108 -86 0
w 110 109 87 0.122977
w 110 109 -87 0.674203
w 110 -109 87 0.0413545
w 110 -109 -87 0.537219
w 111 110 88 0.98555
w 111 110 -88 0.160456
w 111 -110 88 0.198121
w 111 -110 -88 0.813136
w 112 111 89 0.963853
w 112 111 -89 0.534857
w 112 -111 89 0.48784
w 112 -111 -89 0.0320243
w 113 112 90 0.734765
w 113 112 -90 0.861888
w 113 -112 90 0.908158
w 113 -112 -90 0.687513
w 114 113 91 0
w 114 113 -91 0
w 114 -113 91 1
w 114 -113 -91 1
w 115 114 92 0.738559
w 115 114 -92 0.360632
w 115 -114 92 0.27017
w 115 -114 -92 0.652297
w 116 93 1
w 116 -93 0
w 117 116 94 0.104656
w 117 116 -94 0.136141
w 117 -116 94 0.312493
w 117 -116 -94 0.0803365
w 118 117 95 0
w 118 117 -95 0
w 118 -117 95 0
w 118 -117 -95 1
w 119 118 96 1
w 119 118 -96 0
w 119 -118 96 1
w 119 -118 -96 1
w 120 119 97 0
w 120 119 -97 1
w 120 -119 97 1
w 120 -119 -97 1
w 121 120 98 0
w 121 120 -98 1
w 121 -120 98 1
w 121 -120 -98 1
w 122 121 99 1
w 122 121 -99 0
w 122 -121 99 0
w 122 -121 -99 0
w 123 122 100 1
w 123 122 -100 0
w 123 -122 100 1
w 123 -122 -100 1
w 124 123 101 0.233838
w 124 123 -101 0.576868
w 124 -123 101 0.714596
w 124 -123 -101 0.666898
w 125 124 102 0.18428
w 125 124 -102 0.587798
w 125 -124 102 0.0935118
w 125 -124 -102 0.514431
w 126 125 103 1
w 126 125 -103 1
w 126 -125 103 1
w 126 -125 -103 0
w 127 126 104 0
w 127 126 -104 1
w 127 -126 104 0
w 127 -126 -104 0
w 128 127 105 1
w 128 127 -105 1
w 128 -127 105 0
w 128 -127 -105 1
w 129 128 106 0
w 129 128 -106 0
w 129 -128 106 0
w 129 -128 -106 1
w 130 129 107 0.525427
w 130 129 -107 0.843417
w 130 -129 107 0.339656
w 130 -129 -107 0.240023
w 131 130 108 1
w 131 130 -108 1
w 131 -130 108 1
w 131 -130 -108 0
w 132 131 109 0
w 132 131 -109 0
w 132 -131 109 1
w 132 -131 -109 1
w 133 132 110 0.909742
w 133 132 -110 0.612507
w 133 -132 110 0.268986
w 133 -132 -110 0.0482419
w 134 133 111 0
w 134 133 -111 1
w 134 -133 111 0
w 134 -133 -111 1
w 135 134 112 0
w 135 134 -112 0
w 135 -134 112 0
w 135 -134 -112 1
w 136 135 113 0.97256
w 136 135 -113 0.041661
w 136 -135 113 0.214999
w 136 -135 -113 0.212583
w 137 136 114 1
w 137 136 -114 0
w 137 -136 114 0
w 137 -136 -114 0
w 138 137 115 0
w 138 137 -115 0
w 138 -137 115 1
w 138 -137 -115 0
w 139 116 0
w 139 -116 1
w 140 139 117 0.626926
w 140 139 -117 0.355145
w 140 -139 117 0.877868
w 140 -139 -117 0.966605
w 141 140 118 0.491759
w 141 140 -118 0.706579
w 141 -140 118 0.405192
w 141 -140 -118 0.193232
w 142 141 119 1
w 142 141 -119 1
w 142 -141 119 0
w 142 -141 -119 1
w 143 142 120 0
w 143 142 -120 1
w 143 -142 120 1
w 143 -142 -120 1
w 144 143 121 0.462395
w 144 143 -121 0.737213
w 144 -143 121 0.608097
w 144 -143 -121 0.0380165
w 145 144 122 0
w 145 144 -122 1
w 145 -144 122 0
w 145 -144 -122 0
w 146 145 123 0
w 146 145 -123 1
w 146 -145 123 0
w 146 -145 -123 0
w 147 146 124 0
w 147 146 -124 1
w 147 -146 124 1
w 147 -146 -124 0
w 148 147 125 1
w 148 147 -125 1
w 148 -147 125 0
w 148 -147 -125 1
w 149 148 126 1
w 149 148 -126 1
w 149 -148 126 1
w 149 -148 -126 0
w 150 149 127 0
w 150 149 -127 0
w 150 -149 127 1
w 150 -149 -127 0
w 151 150 128 0.733916
w 151 150 -128 0.92557
w 151 -150 128 0.556746
w 151 -150 -128 0.464691
w 152 151 129 0
w 152 151 -129 1
w 152 -151 129 0
w 152 -151 -129 0
w 153 152 130 0
w 153 152 -130 1
w 153 -152 130 1
w 153 -152 -130 1
w 154 153 131 0
w 154 153 -131 1
w 154 -153 131 0
w 154 -153 -131 1
w 155 154 132 1
w 155 154 -132 0
w 155 -154 132 0
w 155 -154 -132 0
w 156 155 133 0.299077
w 156 155 -133 0.57571
w 156 -155 133 0.579762
w 156 -155 -133 0.207059
w 157 156 134 1
w 157 156 -134 0
w 157 -156 134 1
w 157 -156 -134 1
w 158 157 135 0.596707
w 158 157 -135 0.88543
w 158 -157 135 0.190336
w 158 -157 -135 0.743402
w 159 158 136 0
w 159 158 -136 1
w 159 -158 136 0
w 159 -158 -136 0
w 160 159 137 0
w 160 159 -137 1
w 160 -159 137 0
w 160 -159 -137 1
w 161 160 138 0.426094
w 161 160 -138 0.698943
w 161 -160 138 0.306367
w 161 -160 -138 0.546069
w 162 139 0
w 162 -139 1
w 163 162 140 0.832802
w 163 162 -140 0.845432
w 163 -162 140 0.0522052
w 163 -162 -140 0.142428
w 164 163 141 0
w 164 163 -141 0
w 164 -163 141 1
w 164 -163 -141 1
w 165 164 142 1
w 165 164 -142 1
w 165 -164 142 1
w 165 -164 -142 0
w 166 165 143 0
w 166 165 -143 0
w 166 -165 143 1
w 166 -165 -143 0
w 167 166 144 1
w 167 166 -144 0
w 167 -166 144 0
w 167 -166 -144 0
w 168 167 145 0.516235
w 168 167 -145 0.854009
w 168 -167 145 0.322694
w 168 -167 -145 0.773327
w 169 168 146 1
w 169 168 -146 0
w 169 -168 146 0
w 169 -168 -146 1
w 170 169 147 0
w 170 169 -147 0
w 170 -169 147 1
w 170 -169 -147 1
w 171 170 148 1
w 171 170 -148 1
w 171 -170 148 0
w 171 -170 -148 0
w 172 171 149 0
w 172 171 -149 0
w 172 -171 149 0
w 172 -171 -149 1
w 173 172 150 1
w 173 172 -150 0
w 173 -172 150 0
w 173 -172 -150 1
w 174 173 151 0.343121
w 174 173 -151 0.096142
w 174 -173 151 0.656567
w 174 -173 -151 0.665815
w 175 174 152 0.776246
w 175 174 -152 0.833655
w 175 -174 152 0.475598
w 175 -174 -152 0.741357
w 176 175 153 1
w 176 175 -153 1
w 176 -175 153 0
w 176 -175 -153 1
w 177 176 154 1
w 177 176 -154 0
w 177 -176 154 0
w 177 -176 -154 0
w 178 177 155 1
w 178 177 -155 0
w 178 -177 155 0
w 178 -177 -155 1
w 179 178 156 1
w 179 178 -156 0
w 179 -178 156 0
w 179 -178 -156 0
w 180 179 157 0
w 180 179 -157 0
w 180 -179 157 0
w 180 -179 -157 1
w 181 180 158 0.0154442
w 181 180 -158 0.742324
w 181 -180 158 0.430196
w 181 -180 -158 0.756801
w 182 181 159 0.654353
w 182 181 -159 0.814033
w 182 -181 159 0.885779
w 182 -181 -159 0.543812
w 183 182 160 1
w 183 182 -160 1
w 183 -182 160 0
w 183 -182 -160 1
w 184 183 161 0
w 184 183 -161 1
w 184 -183 161 1
w 184 -183 -161 1
w 185 162 1
w 185 -162 0
w 186 185 163 0
w 186 185 -163 1
w 186 -185 163 1
w 186 -185 -163 0
w 187 186 164 1
w 187 186 -164 1
w 187 -186 164 0
w 187 -186 -164 1
w 188 187 165 1
w 188 187 -165 1
w 188 -187 165 0
w 188 -187 -165 1
w 189 188 166 1
w 189 188 -166 0
w 189 -188 166 1
w 189 -188 -166 0
w 190 189 167 0
w 190 189 -167 0
w 190 -189 167 1
w 190 -189 -167 1
w 191 190 168 0
w 191 190 -168 0
w 191 -190 168 1
w 191 -190 -168 0
w 192 191 169 1
w 192 191 -169 0
w 192 -191 169 1
w 192 -191 -169 1
w 193 192 170 0.636802
w 193 192 -170 0.82423
w 193 -192 170 0.751545
w 193 -192 -170 0.996737
w 194 193 171 0.362828
w 194 193 -171 0.152696
w 194 -193 171 0.715852
w 194 -193 -171 0.788144
w 195 194 172 0
w 195 194 -172 1
w 195 -194 172 1
w 195 -194 -172 1
w 196 195 173 0.354585
w 196 195 -173 0.00615582
w 196 -195 173 0.655094
w 196 -195 -173 0.558431
w 197 196 174 1
w 197 196 -174 1
w 197 -196 174 0
w 197 -196 -174 1
w 198 197 175 1
w 198 197 -175 1
w 198 -197 175 1
w 198 -197 -175 0
w 199 198 176 0
w 199 198 -176 1
w 199 -198 176 1
w 199 -198 -176 0
w 200 199 177 0.52706
w 200 199 -177 0.243782
w 200 -199 177 0.522535
w 200 -199 -177 0.315203
w 201 200 178 1
w 201 200 -178 1
w 201 -200 178 1
w 201 -200 -178 0
w 202 201 179 1
w 202 201 -179 1
w 202 -201 179 0
w 202 -201 -179 1
w 203 202 180 0.104666
w 203 202 -180 0.213358
w 203 -202 180 0.934886
w 203 -202 -180 0.606513
w 204 203 181 1
w 204 203 -181 0
w 204 -203 181 0
w 204 -203 -181 1
w 205 204 182 0
w 205 204 -182 1
w 205 -204 182 1
w 205 -204 -182 1
w 206 205 183 0
w 206 205 -183 0
w 206 -205 183 1
w 206 -205 -183 0
w 207 206 184 1
w 207 206 -184 1
w 207 -206 184 1
w 207 -206 -184 0
w 208 185 0
w 208 -185 1
w 209 208 186 0
w 209 208 -186 1
w 209 -208 186 0
w 209 -208 -186 0
w 210 209 187 1
w 210 209 -187 1
w 210 -209 187 0
w 210 -209 -187 0
w 211 210 188 0.939513
w 211 210 -188 0.283303
w 211 -210 188 0.322914
w 211 -210 -188 0.538781
w 212 211 189 0
w 212 211 -189 0
w 212 -211 189 1
w 212 -211 -189 0
w 213 212 190 0
w 213 212 -190 0
w 213 -212 190 1
w 213 -212 -190 0
w 214 213 191 0
w 214 213 -191 1
w 214 -213 191 0
w 214 -213 -191 0
w 215 214 192 1
w 215 214 -192 0
w 215 -214 192 0
w 215 -214 -192 1
w 216 215 193 0.374137
w 216 215 -193 0.358984
w 216 -215 193 0.540252
w 216 -215 -193 0.82665
w 217 216 194 1
w 217 216 -194 1
w 217 -216 194 0
w 217 -216 -194 0
w 218 217 195 0
w 218 217 -195 0
w 218 -217 195 1
w 218 -217 -195 0
w 219 218 196 0.0277397
w 219 218 -196 0.848545
w 219 -218 196 0.11227
w 219 -218 -196 0.210639
w 220 219 197 0.805374
w 220 219 -197 0.392694
w 220 -219 197 0.659516
w 220 -219 -197 0.693943
w 221 220 198 0
w 221 220 -198 1
w 221 -220 198 0
w 221 -220 -198 0
w 222 221 199 0
w 222 221 -199 1
w 222 -221 199 0
w 222 -221 -199 1
w 223 222 200 1
w 223 222 -200 0
w 223 -222 200 1
w 223 -222 -200 1
w 224 223 201 0.734009
w 224 223 -201 0.36775
w 224 -223 201 0.0814733
w 224 -223 -201 0.277073
w 225 224 202 1
w 225 224 -202 1
w 225 -224 202 1
w 225 -224 -202 0
w 226 225 203 0
w 226 225 -203 1
w 226 -225 203 0
w 226 -225 -203 0
w 227 226 204 0
w 227 226 -204 1
w 227 -226 204 0
w 227 -226 -204 0
w 228 227 205 0.794409
w 228 227 -205 0.264907
w 228 -227 205 0.560378
w 228 -227 -205 0.0567435
w 229 228 206 0
w 229 228 -206 0
w 229 -228 206 1
w 229 -228 -206 1
w 230 229 207 0
w 230 229 -207 1
w 230 -229 207 0
w 230 -229 -207 0
w 231 208 0
w 231 -208 1
w 232 231 209 1
w 232 231 -209 0
w 232 -231 209 1
w 232 -231 -209 1
w 233 232 210 0.263023
w 233 232 -210 0.863236
w 233 -232 210 0.470386
w 233 -232 -210 0.00378487
w 234 233 211 0.256284
w 234 233 -211 0.974863
w 234 -233 211 0.729972
w 234 -233 -211 0.521191
w 235 234 212 0
w 235 234 -212 1
w 235 -234 212 1
w 235 -234 -212 0
w 236 235 213 0
w 236 235 -213 0
w 236 -235 213 0
w 236 -235 -213 1
w 237 236 214 0.795383
w 237 236 -214 0.442386
w 237 -236 214 0.422116
w 237 -236 -214 0.0974568
w 238 237 215 0
w 238 237 -215 0
w 238 -237 215 0
w 238 -237 -215 1
w 239 238 216 1
w 239 238 -216 1
w 239 -238 216 0
w 239 -238 -216 0
w 240 239 217 0
w 240 239 -217 1
w 240 -239 217 0
w 240 -239 -217 0
w 241 240 218 0
w 241 240 -218 1
w 241 -240 218 1
w 241 -240 -218 1
w 242 241 219 1
w 242 241 -219 0
w 242 -241 219 0
w 242 -241 -219 0
w 243 242 220 0.472761
w 243 242 -220 0.867968
w 243 -242 220 0.233365
w 243 -242 -220 0.894876
w 244 243 221 0.382579
w 244 243 -221 0.0605053
w 244 -243 221 0.880408
w 244 -243 -221 0.450129
w 245 244 222 0.521062
w 245 244 -222 0.307038
w 245 -244 222 0.96738
w 245 -244 -222 0.0249526
w 246 245 223 0
w 246 245 -223 0
w 246 -245 223 1
w 246 -245 -223 0
w 247 246 224 0
w 247 246 -224 0
w 247 -246 224 0
w 247 -246 -224 1
w 248 247 225 1
w 248 247 -225 1
w 248 -247 225 0
w 248 -247 -225 1
w 249 248 226 0.615827
w 249 248 -226 0.291181
w 249 -248 226 0.734227
w 249 -248 -226 0.849192
w 250 249 227 0
w 250 249 -227 1
w 250 -249 227 0
w 250 -249 -227 0
w 251 250 228 0
w 251 250 -228 0
w 251 -250 228 0
w 251 -250 -228 1
w 252 251 229 1
w 252 251 -229 1
w 252 -251 229 1
w 252 -251 -229 0
w 253 252 230 0
w 253 252 -230 1
w 253 -252 230 1
w 253 -252 -230 0
w 254 231 1
w 254 -231 0
w 255 254 232 0.476754
w 255 254 -232 0.949894
w 255 -254 232 0.764377
w 255 -254 -232 0.343013
w 256 255 233 0
w 256 255 -233 0
w 256 -255 233 1
w 256 -255 -233 0
w 257 256 234 0.646684
w 257 256 -234 0.488179
w 257 -256 234 0.356951
w 257 -256 -234 0.328583
w 258 257 235 1
w 258 257 -235 1
w 258 -257 235 0
w 258 -257 -235 0
w 259 258 236 0.866035
w 259 258 -236 0.174626
w 259 -258 236 0.781978
w 259 -258 -236 0.138233
w 260 259 237 0
w 260 259 -237 1
w 260 -259 237 1
w 260 -259 -237 1
w 261 260 238 1
w 261 260 -238 0
w 261 -260 238 0
w 261 -260 -238 0
w 262 261 239 1
w 262 261 -239 0
w 262 -261 239 1
w 262 -261 -239 0
w 263 262 240 0
w 263 262 -240 0
w 263 -262 240 0
w 263 -262 -240 1
w 264 263 241 1
w 264 263 -241 0
w 264 -263 241 1
w 264 -263 -241 1
w 265 264 242 0
w 265 264 -242 0
w 265 -264 242 1
w 265 -264 -242 0
w 266 265 243 1
w 266 265 -243 0
w 266 -265 243 1
w 266 -265 -243 0
w 267 266 244 0.426896
w 267 266 -244 0.647956
w 267 -266 244 0.880564
w 267 -266 -244 0.630813
w 268 267 245 1
w 268 267 -245 0
w 268 -267 245 0
w 268 -267 -245 0
w 269 268 246 1
w 269 268 -246 0
w 269 -268 246 0
w 269 -268 -246 1
w 270 269 247 0.576053
w 270 269 -247 0.806343
w 270 -269 247 0.935638
w 270 -269 -247 0.0533925
w 271 270 248 0.63763
w 271 270 -248 0.471524
w 271 -270 248 0.751634
w 271 -270 -248 0.514249
w 272 271 249 1
w 272 271 -249 1
w 272 -271 249 0
w 272 -271 -249 1
w 273 272 250 1
w 273 272 -250 1
w 273 -272 250 0
w 273 -272 -250 0
w 274 273 251 1
w 274 273 -251 0
w 274 -273 251 0
w 274 -273 -251 0
w 275 274 252 1
w 275 274 -252 0
w 275 -274 252 1
w 275 -274 -252 1
w 276 275 253 1
w 276 275 -253 1
w 276 -275 253 0
w 276 -275 -253 1
w 277 254 0.206563
w 277 -254 0.528771
w 278 277 255 1
w 278 277 -255 0
w 278 -277 255 0
w 278 -277 -255 0
w 279 278 256 1
w 279 278 -256 0
w 279 -278 256 0
w 279 -278 -256 0
w 280 279 257 0
w 280 279 -257 1
w 280 -279 257 1
w 280 -279 -257 0
w 281 280 258 1
w 281 280 -258 0
w 281 -280 258 0
w 281 -280 -258 1
w 282 281 259 1
w 282 281 -259 0
w 282 -281 259 0
w 282 -281 -259 0
w 283 282 260 0
w 283 282 -260 0
w 283 -282 260 0
w 283 -282 -260 1
w 284 283 261 1
w 284 283 -261 0
w 284 -283 261 0
w 284 -283 -261 1
w 285 284 262 0.563785
w 285 284 -262 0.114169
w 285 -284 262 0.788215
w 285 -284 -262 0.174255
w 286 285 263 0.503953
w 286 285 -263 0.257764
w 286 -285 263 0.86722
w 286 -285 -263 0.717739
w 287 286 264 1
w 287 286 -264 0
w 287 -286 264 0
w 287 -286 -264 1
w 288 287 265 1
w 288 287 -265 0
w 288 -287 265 1
w 288 -287 -265 1
w 289 288 266 1
w 289 288 -266 0
w 289 -288 266 0
w 289 -288 -266 1
w 290 289 267 0
w 290 289 -267 0
w 290 -289 267 0
w 290 -289 -267 1
w 291 290 268 1
w 291 290 -268 1
w 291 -290 268 1
w 291 -290 -268 0
w 292 291 269 0
w 292 291 -269 0
w 292 -291 269 1
w 292 -291 -269 1
w 293 292 270 0.873112
w 293 292 -270 0.311474
w 293 -292 270 0.843879
w 293 -292 -270 0.559974
w 294 293 271 0.906558
w 294 293 -271 0.605632
w 294 -293 271 0.0891363
w 294 -293 -271 0.352007
w 295 294 272 0
w 295 294 -272 1
w 295 -294 272 1
w 295 -294 -272 0
w 296 295 273 0
w 296 295 -273 1
w 296 -295 273 1
w 296 -295 -273 0
w 297 296 274 0.355867
w 297 296 -274 0.317052
w 297 -296 274 0.176865
w 297 -296 -274 0.639119
w 298 297 275 0.648644
w 298 297 -275 0.900008
w 298 -297 275 0.104987
w 298 -297 -275 0.378186
w 299 298 276 1
w 299 298 -276 1
w 299 -298 276 0
w 299 -298 -276 0
w 300 277 0.16214
w 300 -277 0.719107
w 301 300 278 1
w 301 300 -278 0
w 301 -300 278 0
w 301 -300 -278 1
w 302 301 279 1
w 302 301 -279 0
w 302 -301 279 0
w 302 -301 -279 0
w 303 302 280 0
w 303 302 -280 0
w 303 -302 280 1
w 303 -302 -280 1
w 304 303 281 0
w 304 303 -281 1
w 304 -303 281 0
w 304 -303 -281 0
w 305 304 282 0
w 305 304 -282 1
w 305 -304 282 0
w 305 -304 -282 1
w 306 305 283 0.471158
w 306 305 -283 0.536532
w 306 -305 283 0.615229
w 306 -305 -283 0.633298
w 307 306 284 0
w 307 306 -284 0
w 307 -306 284 1
w 307 -306 -284 1
w 308 307 285 0
w 308 307 -285 0
w 308 -307 285 1
w 308 -307 -285 1
w 309 308 286 0
w 309 308 -286 1
w 309 -308 286 1
w 309 -308 -286 1
w 310 309 287 1
w 310 309 -287 0
w 310 -309 287 1
w 310 -309 -287 1
w 311 310 288 0.776971
w 311 310 -288 0.646508
w 311 -310 288 0.917634
w 311 -310 -288 0.500955
w 312 311 289 0
w 312 311 -289 1
w 312 -311 289 1
w 312 -311 -289 0
w 313 312 290 1
w 313 312 -290 0
w 313 -312 290 1
w 313 -312 -290 0
w 314 313 291 0
w 314 313 -291 1
w 314 -313 291 1
w 314 -313 -291 1
w 315 314 292 0.777147
w 315 314 -292 0.925848
w 315 -314 292 0.570961
w 315 -314 -292 0.170694
w 316 315 293 1
w 316 315 -293 1
w 316 -315 293 1
w 316 -315 -293 0
w 317 316 294 1
w 317 316 -294 1
w 317 -316 294 1
w 317 -316 -294 0
w 318 317 295 1
w 318 317 -295 0
w 318 -317 295 1
w 318 -317 -295 0
w 319 318 296 1
w 319 318 -296 0
w 319 -318 296 1
w 319 -318 -296 1
w 320 319 297 0
w 320 319 -297 1
w 320 -319 297 1
w 320 -319 -297 1
w 321 320 298 1
w 321 320 -298 0
w 321 -320 298 1
w 321 -320 -298 0
w 322 321 299 0.623927
w 322 321 -299 0.0369664
w 322 -321 299 0.926475
w 322 -321 -299 0.587874
w 323 300 0
w 323 -300 1
w 324 323 301 1
w 324 323 -301 1
w 324 -323 301 0
w 324 -323 -301 1
w 325 324 302 0.850024
w 325 324 -302 0.678794
w 325 -324 302 0.973875
w 325 -324 -302 0.42251
w 326 325 303 0
w 326 325 -303 0
w 326 -325 303 0
w 326 -325 -303 1
w 327 326 304 1
w 327 326 -304 0
w 327 -326 304 1
w 327 -326 -304 0
w 328 327 305 1
w 328 327 -305 0
w 328 -327 305 0
w 328 -327 -305 1
w 329 328 306 1
w 329 328 -306 0
w 329 -328 306 0
w 329 -328 -306 1
w 330 329 307 1
w 330 329 -307 1
w 330 -329 307 0
w 330 -329 -307 0
w 331 330 308 1
w 331 330 -308 1
w 331 -330 308 1
w 331 -330 -308 0
w 332 331 309 1
w 332 331 -309 0
w 332 -331 309 0
w 332 -331 -309 1
w 333 332 310 1
w 333 332 -310 0
w 333 -332 310 0
w 333 -332 -310 0
w 334 333 311 1
w 334 333 -311 1
w 334 -333 311 0
w 334 -333 -311 1
w 335 334 312 1
w 335 334 -312 1
w 335 -334 312 0
w 335 -334 -312 0
w 336 335 313 0.794654
w 336 335 -313 0.750605
w 336 -335 313 0.0950297
w 336 -335 -313 0.675851
w 337 336 314 1
w 337 336 -314 1
w 337 -336 314 0
w 337 -336 -314 1
w 338 337 315 1
w 338 337 -315 0
w 338 -337 315 1
w 338 -337 -315 1
w 339 338 316 1
w 339 338 -316 1
w 339 -338 316 0
w 339 -338 -316 0
w 340 339 317 0
w 340 339 -317 1
w 340 -339 317 0
w 340 -339 -317 0
w 341 340 318 0.0312509
w 341 340 -318 0.975627
w 341 -340 318 0.326255
w 341 -340 -318 0.401284
w 342 341 319 0.120908
w 342 341 -319 0.151888
w 342 -341 319 0.95505
w 342 -341 -319 0.796759
w 343 342 320 1
w 343 342 -320 1
w 343 -342 320 1
w 343 -342 -320 0
w 344 343 321 0.839965
w 344 343 -321 0.138264
w 344 -343 321 0.0940459
w 344 -343 -321 0.482351
w 345 344 322 0
w 345 344 -322 0
w 345 -344 322 1
w 345 -344 -322 0
w 346 323 0.278036
w 346 -323 0.946001
w 347 346 324 0.988386
w 347 346 -324 0.788134
w 347 -346 324 0.875732
w 347 -346 -324 0.964013
w 348 347 325 1
w 348 347 -325 0
w 348 -347 325 1
w 348 -347 -325 0
w 349 348 326 0.0320557
w 349 348 -326 0.0441749
w 349 -348 326 0.811451
w 349 -348 -326 0.235887
w 350 349 327 1
w 350 349 -327 0
w 350 -349 327 1
w 350 -349 -327 1
w 351 350 328 1
w 351 350 -328 0
w 351 -350 328 0
w 351 -350 -328 0
w 352 351 329 0
w 352 351 -329 0
w 352 -351 329 1
w 352 -351 -329 0
w 353 352 330 0
w 353 352 -330 0
w 353 -352 330 0
w 353 -352 -330 1
w 354 353 331 1
w 354 353 -331 1
w 354 -353 331 0
w 354 -353 -331 1
w 355 354 332 0.734665
w 355 354 -332 0.0575063
w 355 -354 332 0.169741
w 355 -354 -332 0.249067
w 356 355 333 0.170263
w 356 355 -333 0.603434
w 356 -355 333 0.950379
w 356 -355 -333 0.264831
w 357 356 334 0
w 357 356 -334 1
w 357 -356 334 1
w 357 -356 -334 1
w 358 357 335 1
w 358 357 -335 1
w 358 -357 335 0
w 358 -357 -335 0
w 359 358 336 0
w 359 358 -336 1
w 359 -358 336 1
w 359 -358 -336 0
w 360 359 337 0
w 360 359 -337 1
w 360 -359 337 0
w 360 -359 -337 0
w 361 360 338 0
w 361 360 -338 1
w 361 -360 338 1
w 361 -360 -338 0
w 362 361 339 0.628109
w 362 361 -339 0.872164
w 362 -361 339 0.743947
w 362 -361 -339 0.89294
w 363 362 340 1
w 363 362 -340 0
w 363 -362 340 0
w 363 -362 -340 0
w 364 363 341 0
w 364 363 -341 0
w 364 -363 341 0
w 364 -363 -341 1
w 365 364 342 0.843697
w 365 364 -342 0.453848
w 365 -364 342 0.204687
w 365 -364 -342 0.93192
w 366 365 343 0.799195
w 366 365 -343 0.487116
w 366 -365 343 0.260551
w 366 -365 -343 0.0841921
w 367 366 344 0
w 367 366 -344 0
w 367 -366 344 1
w 367 -366 -344 1
w 368 367 345 0
w 368 367 -345 0
w 368 -367 345 1
w 368 -367 -345 1
w 369 346 0
w 369 -346 1
w 370 369 347 0.0837976
w 370 369 -347 0.521262
w 370 -369 347 0.277289
w 370 -369 -347 0.715857
w 371 370 348 0.800704
w 371 370 -348 0.114271
w 371 -370 348 0.623217
w 371 -370 -348 0.672469
w 372 371 349 0.0770646
w 372 371 -349 0.877156
w 372 -371 349 0.889888
w 372 -371 -349 0.983365
w 373 372 350 0
w 373 372 -350 0
w 373 -372 350 1
w 373 -372 -350 0
w 374 373 351 0.864397
w 374 373 -351 0.812495
w 374 -373 351 0.799075
w 374 -373 -351 0.23698
w 375 374 352 0.433685
w 375 374 -352 0.481727
w 375 -374 352 0.437825
w 375 -374 -352 0.961236
w 376 375 353 1
w 376 375 -353 0
w 376 -375 353 0
w 376 -375 -353 0
w 377 376 354 0.515372
w 377 376 -354 0.509205
w 377 -376 354 0.875162
w 377 -376 -354 0.138588
w 378 377 355 0
w 378 377 -355 0
w 378 -377 355 1
w 378 -377 -355 1
w 379 378 356 0
w 379 378 -356 0
w 379 -378 356 1
w 379 -378 -356 1
w 380 379 357 0.235507
w 380 379 -357 0.360119
w 380 -379 357 0.577888
w 380 -379 -357 0.0345821
w 381 380 358 0
w 381 380 -358 1
w 381 -380 358 0
w 381 -380 -358 1
w 382 381 359 1
w 382 381 -359 0
w 382 -381 359 0
w 382 -381 -359 1
w 383 382 360 0.235428
w 383 382 -360 0.19304
w 383 -382 360 0.417819
w 383 -382 -360 0.110591
w 384 383 361 1
w 384 383 -361 1
w 384 -383 361 0
w 384 -383 -361 1
w 385 384 362 0
w 385 384 -362 1
w 385 -384 362 0
w 385 -384 -362 1
w 386 385 363 0.532156
w 386 385 -363 0.42474
w 386 -385 363 0.249345
w 386 -385 -363 0.110044
w 387 386 364 1
w 387 386 -364 0
w 387 -386 364 1
w 387 -386 -364 1
w 388 387 365 1
w 388 387 -365 0
w 388 -387 365 1
w 388 -387 -365 1
w 389 388 366 1
w 389 388 -366 1
w 389 -388 366 1
w 389 -388 -366 0
w 390 389 367 0
w 390 389 -367 1
w 390 -389 367 1
w 390 -389 -367 0
w 391 390 368 0.788112
w 391 390 -368 0.538802
w 391 -390 368 0.387882
w 391 -390 -368 0.554875
w 392 369 1
w 392 -369 0
w 393 392 370 1
w 393 392 -370 0
w 393 -392 370 0
w 393 -392 -370 0
w 394 393 371 0
w 394 393 -371 1
w 394 -393 371 0
w 394 -393 -371 1
w 395 394 372 0.341053
w 395 394 -372 0.258342
w 395 -394 372 0.728413
w 395 -394 -372 0.0616084
w 396 395 373 1
w 396 395 -373 1
w 396 -395 373 1
w 396 -395 -373 0
w 397 396 374 0
w 397 396 -374 1
w 397 -396 374 1
w 397 -396 -374 1
w 398 397 375 1
w 398 397 -375 1
w 398 -397 375 0
w 398 -397 -375 0
w 399 398 376 1
w 399 398 -376 0
w 399 -398 376 0
w 399 -398 -376 1
w 400 399 377 0
w 400 399 -377 1
w 400 -399 377 0
w 400 -399 -377 1
w 401 400 378 1
w 401 400 -378 1
w 401 -400 378 1
w 401 -400 -378 0
w 402 401 379 0
w 402 401 -379 1
w 402 -401 379 1
w 402 -401 -379 1
w 403 402 380 1
w 403 402 -380 1
w 403 -402 380 0
w 403 -402 -380 0
w 404 403 381 0.669538
w 404 403 -381 0.682821
w 404 -403 381 0.392696
w 404 -403 -381 0.949304
w 405 404 382 0.917208
w 405 404 -382 0.381844
w 405 -404 382 0.827417
w 405 -404 -382 0.638795
w 406 405 383 0
w 406 405 -383 0
w 406 -405 383 1
w 406 -405 -383 0
w 407 406 384 1
w 407 406 -384 1
w 407 -406 384 0
w 407 -406 -384 0
w 408 407 385 0
w 408 407 -385 1
w 408 -407 385 1
w 408 -407 -385 1
w 409 408 386 0
w 409 408 -386 1
w 409 -408 386 0
w 409 -408 -386 0
w 410 409 387 1
w 410 409 -387 0
w 410 -409 387 1
w 410 -409 -387 1
w 411 410 388 0
w 411 410 -388 0
w 411 -410 388 1
w 411 -410 -388 0
w 412 411 389 1
w 412 411 -389 0
w 412 -411 389 1
w 412 -411 -389 1
w 413 412 390 0.866209
w 413 412 -390 0.336337
w 413 -412 390 0.201477
w 413 -412 -390 0.539111
w 414 413 391 0
w 414 413 -391 1
w 414 -413 391 1
w 414 -413 -391 0
w 415 392 0
w 415 -392 1
w 416 415 393 0.408988
w 416 415 -393 0.185886
w 416 -415 393 0.379638
w 416 -415 -393 0.140007
w 417 416 394 0.455622
w 417 416 -394 0.553848
w 417 -416 394 0.00331094
w 417 -416 -394 0.48091
w 418 417 395 0.0255799
w 418 417 -395 0.888043
w 418 -417 395 0.192734
w 418 -417 -395 0.686644
w 419 418 396 0
w 419 418 -396 0
w 419 -418 396 1
w 419 -418 -396 1
w 420 419 397 1
w 420 419 -397 1
w 420 -419 397 1
w 420 -419 -397 0
w 421 420 398 0.00703878
w 421 420 -398 0.684385
w 421 -420 398 0.659953
w 421 -420 -398 0.335863
w 422 421 399 0
w 422 421 -399 0
w 422 -421 399 1
w 422 -421 -399 0
w 423 422 400 0.197258
w 423 422 -400 0.468404
w 423 -422 400 0.438707
w 423 -422 -400 0.200569
w 424 423 401 0.398289
w 424 423 -401 0.226149
w 424 -423 401 0.837357
w 424 -423 -401 0.591024
w 425 424 402 0.559015
w 425 424 -402 0.0527474
w 425 -424 402 0.259079
w 425 -424 -402 0.125095
w 426 425 403 1
w 426 425 -403 0
w 426 -425 403 1
w 426 -425 -403 0
w 427 426 404 0.7759
w 427 426 -404 0.230216
w 427 -426 404 0.652086
w 427 -426 -404 0.435853
w 428 427 405 1
w 428 427 -405 0
w 428 -427 405 1
w 428 -427 -405 1
w 429 428 406 1
w 429 428 -406 1
w 429 -428 406 1
w 429 -428 -406 0
w 430 429 407 1
w 430 429 -407 0
w 430 -429 407 0
w 430 -429 -407 0
w 431 430 408 0.676555
w 431 430 -408 0.860064
w 431 -430 408 0.0209649
w 431 -430 -408 0.00243947
w 432 431 409 1
w 432 431 -409 1
w 432 -431 409 0
w 432 -431 -409 1
w 433 432 410 0
w 433 432 -410 1
w 433 -432 410 1
w 433 -432 -410 1
w 434 433 411 0
w 434 433 -411 1
w 434 -433 411 0
w 434 -433 -411 1
w 435 434 412 0.75916
w 435 434 -412 0.715649
w 435 -434 412 0.492324
w 435 -434 -412 0.221203
w 436 435 413 1
w 436 435 -413 0
w 436 -435 413 1
w 436 -435 -413 1
w 437 436 414 1
w 437 436 -414 0
w 437 -436 414 1
w 437 -436 -414 1
w 438 415 0.702082
w 438 -415 0.517314
w 439 438 416 0
w 439 438 -416 0
w 439 -438 416 1
w 439 -438 -416 0
w 440 439 417 0
w 440 439 -417 1
w 440 -439 417 0
w 440 -439 -417 1
w 441 440 418 0
w 441 440 -418 1
w 441 -440 418 0
w 441 -440 -418 0
w 442 441 419 0
w 442 441 -419 0
w 442 -441 419 1
w 442 -441 -419 0
w 443 442 420 0
w 443 442 -420 1
w 443 -442 420 0
w 443 -442 -420 0
w 444 443 421 0.732638
w 444 443 -421 0.605576
w 444 -443 421 0.390353
w 444 -443 -421 0.363486
w 445 444 422 0.923844
w 445 444 -422 0.573172
w 445 -444 422 0.9044
w 445 -444 -422 0.125599
w 446 445 423 0.297438
w 446 445 -423 0.760824
w 446 -445 423 0.105611
w 446 -445 -423 0.352517
w 447 446 424 0.579141
w 447 446 -424 0.265425
w 447 -446 424 0.785806
w 447 -446 -424 0.76832
w 448 447 425 1
w 448 447 -425 0
w 448 -447 425 0
w 448 -447 -425 1
w 449 448 426 0
w 449 448 -426 0
w 449 -448 426 1
w 449 -448 -426 0
w 450 449 427 0
w 450 449 -427 0
w 450 -449 427 1
w 450 -449 -427 1
w 451 450 428 1
w 451 450 -428 0
w 451 -450 428 1
w 451 -450 -428 0
w 452 451 429 0.0518236
w 452 451 -429 0.0281795
w 452 -451 429 0.606836
w 452 -451 -429 0.157435
w 453 452 430 1
w 453 452 -430 0
w 453 -452 430 1
w 453 -452 -430 0
w 454 453 431 0
w 454 453 -431 0
w 454 -453 431 0
w 454 -453 -431 1
w 455 454 432 0.598029
w 455 454 -432 0.562001
w 455 -454 432 0.339695
w 455 -454 -432 0.183009
w 456 455 433 0.74591
w 456 455 -433 0.500627
w 456 -455 433 0.884161
w 456 -455 -433 0.542479
w 457 456 434 0
w 457 456 -434 1
w 457 -456 434 0
w 457 -456 -434 0
w 458 457 435 0
w 458 457 -435 0
w 458 -457 435 1
w 458 -457 -435 1
w 459 458 436 0.216309
w 459 458 -436 0.381842
w 459 -458 436 0.496241
w 459 -458 -436 0.502685
w 460 459 437 0.81302
w 460 459 -437 0.688141
w 460 -459 437 0.56428
w 460 -459 -437 0.730795
w 461 438 0.370798
w 461 -438 0.328824
w 462 461 439 1
w 462 461 -439 0
w 462 -461 439 1
w 462 -461 -439 0
w 463 462 440 0
w 463 462 -440 1
w 463 -462 440 0
w 463 -462 -440 0
w 464 463 441 0
w 464 463 -441 1
w 464 -463 441 1
w 464 -463 -441 1
w 465 464 442 0.0864144
w 465 464 -442 0.763297
w 465 -464 442 0.633087
w 465 -464 -442 0.302723
w 466 465 443 0
w 466 465 -443 0
w 466 -465 443 1
w 466 -465 -443 0
w 467 466 444 1
w 467 466 -444 1
w 467 -466 444 1
w 467 -466 -444 0
w 468 467 445 1
w 468 467 -445 0
w 468 -467 445 1
w 468 -467 -445 1
w 469 468 446 1
w 469 468 -446 1
w 469 -468 446 0
w 469 -468 -446 1
w 470 469 447 0
w 470 469 -447 1
w 470 -469 447 1
w 470 -469 -447 1
w 471 470 448 0
w 471 470 -448 1
w 471 -470 448 0
w 471 -470 -448 1
w 472 471 449 0
w 472 471 -449 1
w 472 -471 449 1
w 472 -471 -449 0
w 473 472 450 0
w 473 472 -450 0
w 473 -472 450 1
w 473 -472 -450 1
w 474 473 451 1
w 474 473 -451 1
w 474 -473 451 0
w 474 -473 -451 0
w 475 474 452 0.474428
w 475 474 -452 0.397981
w 475 -474 452 0.916149
w 475 -474 -452 0.194881
w 476 475 453 1
w 476 475 -453 1
w 476 -475 453 0
w 476 -475 -453 0
w 477 476 454 0
w 477 476 -454 0
w 477 -476 454 1
w 477 -476 -454 0
w 478 477 455 1
w 478 477 -455 0
w 478 -477 455 0
w 478 -477 -455 0
w 479 478 456 0.494776
w 479 478 -456 0.0374746
w 479 -478 456 0.378143
w 479 -478 -456 0.236953
w 480 479 457 0
w 480 479 -457 1
w 480 -479 457 0
w 480 -479 -457 0
w 481 480 458 0.442561
w 481 480 -458 0.235106
w 481 -480 458 0.335652
w 481 -480 -458 0.358709
w 482 481 459 0
w 482 481 -459 1
w 482 -481 459 0
w 482 -481 -459 0
w 483 482 460 0
w 483 482 -460 1
w 483 -482 460 0
w 483 -482 -460 1
w 484 461 1
w 484 -461 0
w 485 484 462 0.557158
w 485 484 -462 0.795909
w 485 -484 462 0.891579
w 485 -484 -462 0.502901
w 486 485 463 1
w 486 485 -463 0
w 486 -485 463 0
w 486 -485 -463 0
w 487 486 464 1
w 487 486 -464 1
w 487 -486 464 0
w 487 -486 -464 0
w 488 487 465 0
w 488 487 -465 1
w 488 -487 465 0
w 488 -487 -465 1
w 489 488 466 1
w 489 488 -466 1
w 489 -488 466 1
w 489 -488 -466 0
w 490 489 467 1
w 490 489 -467 1
w 490 -489 467 0
w 490 -489 -467 0
w 491 490 468 0
w 491 490 -468 0
w 491 -490 468 0
w 491 -490 -468 1
w 492 491 469 1
w 492 491 -469 1
w 492 -491 469 1
w 492 -491 -469 0
w 493 492 470 0
w 493 492 -470 1
w 493 -492 470 1
w 493 -492 -470 1
w 494 493 471 0
w 494 493 -471 1
w 494 -493 471 1
w 494 -493 -471 1
w 495 494 472 1
w 495 494 -472 1
w 495 -494 472 0
w 495 -494 -472 0
w 496 495 473 1
w 496 495 -473 1
w 496 -495 473 1
w 496 -495 -473 0
w 497 496 474 0
w 497 496 -474 1
w 497 -496 474 0
w 497 -496 -474 1
w 498 497 475 1
w 498 497 -475 0
w 498 -497 475 1
w 498 -497 -475 0
w 499 498 476 0.933807
w 499 498 -476 0.652996
w 499 -498 476 0.910655
w 499 -498 -476 0.510995
w 500 499 477 1
w 500 499 -477 0
w 500 -499 477 1
w 500 -499 -477 1
w 501 500 478 0
w 501 500 -478 0
w 501 -500 478 1
w 501 -500 -478 1
w 502 501 479 0
w 502 501 -479 0
w 502 -501 479 1
w 502 -501 -479 0
w 503 502 480 0
w 503 502 -480 0
w 503 -502 480 0
w 503 -502 -480 1
w 504 503 481 0.141399
w 504 503 -481 0.570103
w 504 -503 481 0.695218
w 504 -503 -481 0.538365
w 505 504 482 1
w 505 504 -482 0
w 505 -504 482 1
w 505 -504 -482 0
w 506 505 483 0.218429
w 506 505 -483 0.853515
w 506 -505 483 0.470405
w 506 -505 -483 0.16488
w 507 484 0.00231051
w 507 -484 0.91257
w 508 507 485 0
w 508 507 -485 0
w 508 -507 485 0
w 508 -507 -485 1
w 509 508 486 1
w 509 508 -486 1
w 509 -508 486 0
w 509 -508 -486 1
w 510 509 487 0
w 510 509 -487 0
w 510 -509 487 0
w 510 -509 -487 1
w 511 510 488 1
w 511 510 -488 1
w 511 -510 488 0
w 511 -510 -488 0
w 512 511 489 1
w 512 511 -489 0
w 512 -511 489 0
w 512 -511 -489 0
w 513 512 490 0.900934
w 513 512 -490 0.982569
w 513 -512 490 0.686346
w 513 -512 -490 0.903245
w 514 513 491 0.77683
w 514 513 -491 0.29576
w 514 -513 491 0.441221
w 514 -513 -491 0.543897
w 515 514 492 0
w 515 514 -492 0
w 515 -514 492 1
w 515 -514 -492 0
w 516 515 493 0.259738
w 516 515 -493 0.734531
w 516 -515 493 0.507007
w 516 -515 -493 0.540167
w 517 516 494 1
w 517 516 -494 1
w 517 -516 494 0
w 517 -516 -494 1
w 518 517 495 0.593912
w 518 517 -495 0.0226746
w 518 -517 495 0.899527
w 518 -517 -495 0.0244411
w 519 518 496 0.653854
w 519 518 -496 0.925375
w 519 -518 496 0.822932
w 519 -518 -496 0.3402
w 520 519 497 0.718071
w 520 519 -497 0.11703
w 520 -519 497 0.12438
w 520 -519 -497 0.159292
w 521 520 498 0
w 521 520 -498 1
w 521 -520 498 1
w 521 -520 -498 1
w 522 521 499 0
w 522 521 -499 1
w 522 -521 499 0
w 522 -521 -499 0
w 523 522 500 1
w 523 522 -500 1
w 523 -522 500 1
w 523 -522 -500 0
w 524 523 501 1
w 524 523 -501 1
w 524 -523 501 0
w 524 -523 -501 1
w 525 524 502 0
w 525 524 -502 0
w 525 -524 502 0
w 525 -524 -502 1
w 526 525 503 1
w 526 525 -503 1
w 526 -525 503 1
w 526 -525 -503 0
w 527 526 504 0
w 527 526 -504 0
w 527 -526 504 0
w 527 -526 -504 1
w 528 527 505 0.46532
w 528 527 -505 0.136291
w 528 -527 505 0.617644
w 528 -527 -505 0.625413
w 529 528 506 1
w 529 528 -506 1
w 529 -528 506 1
w 529 -528 -506 0